NAME: rand_1/map8_72
TYPE: TSP
COMMENT: autogenerated using a wonderful map creator
DIMENSION: 96
EDGE_WEIGHT_TYPE: EUC_2D
NODE_COORD_SECTION
1 81.0 6.0
2 3.0 5.0
3 2.0 5.0
4 2.0 4.0
5 3.0 8.0
6 1.0 6.0
7 79.0 2.0
8 4.0 5.0
9 80.0 8.0
10 82.0 3.0
11 79.0 5.0
12 1.0 5.0
13 2.0 6.0
14 1.0 1.0
15 78.0 8.0
16 4.0 6.0
17 80.0 1.0
18 5.0 3.0
19 78.0 7.0
20 80.0 9.0
21 4.0 8.0
22 81.0 4.0
23 3.0 2.0
24 1.0 7.0
25 78.0 9.0
26 82.0 9.0
27 78.0 3.0
28 80.0 4.0
29 81.0 3.0
30 3.0 3.0
31 5.0 7.0
32 2.0 3.0
33 80.0 5.0
34 81.0 1.0
35 78.0 4.0
36 5.0 2.0
37 78.0 6.0
38 1.0 9.0
39 81.0 2.0
40 2.0 2.0
41 2.0 7.0
42 82.0 6.0
43 79.0 8.0
44 79.0 4.0
45 82.0 5.0
46 3.0 6.0
47 82.0 7.0
48 5.0 8.0
49 55.0 2.0
50 9.0 8.0
51 11.0 5.0
52 75.0 8.0
53 48.0 8.0
54 35.0 8.0
55 15.0 5.0
56 26.0 5.0
57 17.0 5.0
58 74.0 2.0
59 21.0 2.0
60 54.0 8.0
61 56.0 5.0
62 34.0 5.0
63 36.0 2.0
64 47.0 2.0
65 14.0 8.0
66 51.0 2.0
67 18.0 5.0
68 73.0 5.0
69 75.0 5.0
70 44.0 8.0
71 15.0 2.0
72 26.0 2.0
73 33.0 8.0
74 72.0 8.0
75 36.0 6.0
76 47.0 6.0
77 28.0 2.0
78 69.0 3.0
79 58.0 3.0
80 32.0 2.0
81 43.0 2.0
82 10.0 8.0
83 63.0 8.0
84 45.0 2.0
85 12.0 8.0
86 14.0 5.0
87 58.0 5.0
88 60.0 2.0
89 51.0 8.0
90 53.0 8.0
91 64.0 8.0
92 31.0 5.0
93 22.0 2.0
94 40.0 8.0
95 42.0 8.0
96 48.0 5.0
97 43.0 8.0
98 8.0 8.0
99 65.0 5.0
100 27.0 5.0
101 16.0 2.0
102 71.0 2.0
103 73.0 8.0
104 49.0 8.0
105 20.0 2.0
106 44.0 2.0
107 11.0 8.0
108 68.0 5.0
109 46.0 5.0
110 39.0 8.0
111 15.0 8.0
112 59.0 5.0
113 28.0 8.0
114 17.0 8.0
115 76.0 2.0
116 63.0 2.0
117 21.0 5.0
118 34.0 8.0
119 25.0 2.0
120 49.0 5.0
START_DEPOT_SECTION
1
2
3
4
5
6
7
8
9
10
11
12
13
14
15
16
17
18
19
20
21
22
23
24
-1
END_DEPOT_SECTION
25
26
27
28
29
30
31
32
33
34
35
36
37
38
39
40
41
42
43
44
45
46
47
48
-1
EOF
